Version identifier: 22.1.0.0 | 2022-03-09 | 1a383f8ce
CPXPARAM_Read_DataCheck                          1
Tried aggregator 3 times.
MIP Presolve eliminated 1384 rows and 433 columns.
MIP Presolve modified 48 coefficients.
Aggregator did 1010 substitutions.
Reduced MIP has 418 rows, 1077 columns, and 2585 nonzeros.
Reduced MIP has 1069 binaries, 8 generals, 0 SOSs, and 0 indicators.
Presolve time = 0.01 sec. (7.44 ticks)
Probing fixed 16 vars, tightened 0 bounds.
Probing time = 0.00 sec. (1.23 ticks)
Tried aggregator 2 times.
Detecting symmetries...
MIP Presolve eliminated 18 rows and 22 columns.
Aggregator did 6 substitutions.
Reduced MIP has 394 rows, 1049 columns, and 2493 nonzeros.
Reduced MIP has 1041 binaries, 8 generals, 0 SOSs, and 0 indicators.
Presolve time = 0.01 sec. (3.23 ticks)
Probing time = 0.00 sec. (1.00 ticks)
Clique table members: 2297.
MIP emphasis: balance optimality and feasibility.
MIP search method: dynamic search.
Parallel mode: deterministic, using up to 8 threads.
Root relaxation solution time = 0.03 sec. (3.65 ticks)

        Nodes                                         Cuts/
   Node  Left     Objective  IInf  Best Integer    Best Bound    ItCnt     Gap

      0     0        8.4808   308                      8.4808      345         
      0     0       14.0000   234                    Cuts: 56      755         
      0     0       14.0000   243                    Cuts: 24      867         
      0     0       14.0000   179                     Cuts: 7      961         
      0     0       14.0000   187                ZeroHalf: 22     1316         
*     0+    0                           15.0000       14.0000             6.67%
Detecting symmetries...

Repeating presolve.
Tried aggregator 3 times.
MIP Presolve eliminated 58 rows and 336 columns.
MIP Presolve modified 5 coefficients.
Aggregator did 70 substitutions.
Reduced MIP has 266 rows, 643 columns, and 1583 nonzeros.
Reduced MIP has 643 binaries, 0 generals, 0 SOSs, and 0 indicators.
Presolve time = 0.00 sec. (2.14 ticks)
Represolve time = 0.01 sec. (4.05 ticks)

Root node processing (before b&c):
  Real time             =    0.54 sec. (224.46 ticks)
Parallel b&c, 8 threads:
  Real time             =    0.00 sec. (0.00 ticks)
  Sync time (average)   =    0.00 sec.
  Wait time (average)   =    0.00 sec.
                          ------------
Total (root+branch&cut) =    0.54 sec. (224.46 ticks)
Version identifier: 22.1.0.0 | 2022-03-09 | 1a383f8ce
CPXPARAM_Read_DataCheck                          1
Tried aggregator 3 times.
MIP Presolve eliminated 1384 rows and 433 columns.
MIP Presolve modified 48 coefficients.
Aggregator did 1010 substitutions.
Reduced MIP has 418 rows, 1077 columns, and 2585 nonzeros.
Reduced MIP has 1069 binaries, 8 generals, 0 SOSs, and 0 indicators.
Presolve time = 0.01 sec. (7.44 ticks)
Probing fixed 16 vars, tightened 0 bounds.
Probing time = 0.00 sec. (1.23 ticks)
Tried aggregator 2 times.
Detecting symmetries...
MIP Presolve eliminated 18 rows and 22 columns.
Aggregator did 6 substitutions.
Reduced MIP has 394 rows, 1049 columns, and 2493 nonzeros.
Reduced MIP has 1041 binaries, 8 generals, 0 SOSs, and 0 indicators.
Presolve time = 0.01 sec. (3.23 ticks)
Probing time = 0.00 sec. (1.00 ticks)
Clique table members: 2297.
MIP emphasis: balance optimality and feasibility.
MIP search method: dynamic search.
Parallel mode: deterministic, using up to 8 threads.
Root relaxation solution time = 0.03 sec. (3.65 ticks)

        Nodes                                         Cuts/
   Node  Left     Objective  IInf  Best Integer    Best Bound    ItCnt     Gap

      0     0        8.4808   308                      8.4808      345         
      0     0       14.0000   234                    Cuts: 56      755         
      0     0       14.0000   243                    Cuts: 24      867         
      0     0       14.0000   179                     Cuts: 7      961         
      0     0       14.0000   187                ZeroHalf: 22     1316         
*     0+    0                           15.0000       14.0000             6.67%
Detecting symmetries...

Repeating presolve.
Tried aggregator 3 times.
MIP Presolve eliminated 58 rows and 336 columns.
MIP Presolve modified 5 coefficients.
Aggregator did 70 substitutions.
Reduced MIP has 266 rows, 643 columns, and 1583 nonzeros.
Reduced MIP has 643 binaries, 0 generals, 0 SOSs, and 0 indicators.
Presolve time = 0.00 sec. (2.14 ticks)
Represolve time = 0.01 sec. (4.05 ticks)

Root node processing (before b&c):
  Real time             =    0.50 sec. (224.46 ticks)
Parallel b&c, 8 threads:
  Real time             =    0.00 sec. (0.00 ticks)
  Sync time (average)   =    0.00 sec.
  Wait time (average)   =    0.00 sec.
                          ------------
Total (root+branch&cut) =    0.50 sec. (224.46 ticks)
Version identifier: 22.1.0.0 | 2022-03-09 | 1a383f8ce
CPXPARAM_Read_DataCheck                          1
1 of 1 MIP starts provided solutions.
MIP start 'm1' defined initial solution with objective 15.0000.
Tried aggregator 3 times.
MIP Presolve eliminated 1384 rows and 433 columns.
MIP Presolve modified 48 coefficients.
Aggregator did 1010 substitutions.
Reduced MIP has 418 rows, 1077 columns, and 2585 nonzeros.
Reduced MIP has 1069 binaries, 8 generals, 0 SOSs, and 0 indicators.
Presolve time = 0.01 sec. (7.44 ticks)
Probing fixed 16 vars, tightened 0 bounds.
Probing time = 0.00 sec. (1.23 ticks)
Tried aggregator 2 times.
Detecting symmetries...
MIP Presolve eliminated 18 rows and 22 columns.
Aggregator did 6 substitutions.
Reduced MIP has 394 rows, 1049 columns, and 2493 nonzeros.
Reduced MIP has 1041 binaries, 8 generals, 0 SOSs, and 0 indicators.
Presolve time = 0.00 sec. (3.23 ticks)
Probing time = 0.00 sec. (1.00 ticks)
Clique table members: 2297.
MIP emphasis: balance optimality and feasibility.
MIP search method: dynamic search.
Parallel mode: deterministic, using up to 8 threads.
Root relaxation solution time = 0.01 sec. (3.65 ticks)

        Nodes                                         Cuts/
   Node  Left     Objective  IInf  Best Integer    Best Bound    ItCnt     Gap

*     0+    0                           15.0000        0.0000           100.00%
      0     0        8.4808   308       15.0000        8.4808      345   43.46%
      0     0       14.0000   234       15.0000      Cuts: 56      755    6.67%
      0     0        cutoff             15.0000                   2692    0.00%
Elapsed time = 0.27 sec. (158.11 ticks, tree = 0.01 MB, solutions = 1)

Clique cuts applied:  3
Implied bound cuts applied:  3
Zero-half cuts applied:  11
Gomory fractional cuts applied:  10

Root node processing (before b&c):
  Real time             =    0.27 sec. (158.20 ticks)
Parallel b&c, 8 threads:
  Real time             =    0.00 sec. (0.00 ticks)
  Sync time (average)   =    0.00 sec.
  Wait time (average)   =    0.00 sec.
                          ------------
Total (root+branch&cut) =    0.27 sec. (158.20 ticks)
